NAME : sim161.125202.tour
COMMENT : Length = 125202
COMMENT : Found by LKH [Keld Helsgaun] Mon Sep 17 07:30:44 2018
TYPE : TOUR
DIMENSION : 161
TOUR_SECTION
1
118
76
146
41
65
104
9
116
47
134
54
86
90
40
131
159
5
128
99
44
84
80
142
55
56
60
105
12
114
117
29
70
152
125
7
127
126
83
133
154
15
43
26
143
73
57
13
31
39
33
32
17
21
74
36
85
52
91
3
94
103
24
149
66
115
68
64
122
108
138
81
20
161
18
59
160
35
22
135
27
51
157
121
87
28
48
132
140
63
141
148
34
147
6
25
113
67
151
72
111
145
119
107
38
2
75
130
89
106
69
45
156
8
139
46
95
96
98
79
53
158
71
23
58
62
100
112
110
49
77
109
150
137
42
19
82
153
78
37
4
16
144
124
102
120
10
50
97
123
30
101
93
155
61
136
92
88
11
14
129
-1
EOF
